
n_res = 4;
rcap = [11, 13, 369, 402];
rtype = [1, 1, 2, 2];
n_tasks = 100;
modes =  [{1, 2, 3}, {4, 5, 6}, {7, 8, 9}, {10, 11, 12}, {13, 14, 15}, {16, 17, 18}, {19, 20, 21}, {22, 23, 24}, {25, 26, 27}, {28, 29, 30}, {31, 32, 33}, {34, 35, 36}, {37, 38, 39}, {40, 41, 42}, {43, 44, 45}, {46, 47, 48}, {49, 50, 51}, {52, 53, 54}, {55, 56, 57}, {58, 59, 60}, {61, 62, 63}, {64, 65, 66}, {67, 68, 69}, {70, 71, 72}, {73, 74, 75}, {76, 77, 78}, {79, 80, 81}, {82, 83, 84}, {85, 86, 87}, {88, 89, 90}, {91, 92, 93}, {94, 95, 96}, {97, 98, 99}, {100, 101, 102}, {103, 104, 105}, {106, 107, 108}, {109, 110, 111}, {112, 113, 114}, {115, 116, 117}, {118, 119, 120}, {121, 122, 123}, {124, 125, 126}, {127, 128, 129}, {130, 131, 132}, {133, 134, 135}, {136, 137, 138}, {139, 140, 141}, {142, 143, 144}, {145, 146, 147}, {148, 149, 150}, {151, 152, 153}, {154, 155, 156}, {157, 158, 159}, {160, 161, 162}, {163, 164, 165}, {166, 167, 168}, {169, 170, 171}, {172, 173, 174}, {175, 176, 177}, {178, 179, 180}, {181, 182, 183}, {184, 185, 186}, {187, 188, 189}, {190, 191, 192}, {193, 194, 195}, {196, 197, 198}, {199, 200, 201}, {202, 203, 204}, {205, 206, 207}, {208, 209, 210}, {211, 212, 213}, {214, 215, 216}, {217, 218, 219}, {220, 221, 222}, {223, 224, 225}, {226, 227, 228}, {229, 230, 231}, {232, 233, 234}, {235, 236, 237}, {238, 239, 240}, {241, 242, 243}, {244, 245, 246}, {247, 248, 249}, {250, 251, 252}, {253, 254, 255}, {256, 257, 258}, {259, 260, 261}, {262, 263, 264}, {265, 266, 267}, {268, 269, 270}, {271, 272, 273}, {274, 275, 276}, {277, 278, 279}, {280, 281, 282}, {283, 284, 285}, {286, 287, 288}, {289, 290, 291}, {292, 293, 294}, {295, 296, 297}, {298, 299, 300}];
succ =  [{30, 22, 20, 18, 17, 16, 15, 13, 10}, {30, 22, 20, 18, 17, 16, 15, 14, 13}, {22, 16, 13, 5}, {32, 31, 30, 24, 22, 21, 19, 18, 16, 15}, {31, 30, 24, 19, 18, 11}, {35, 32, 31, 30, 27, 25, 24, 22, 14}, {35, 32, 31, 30, 22, 21, 19, 18, 16}, {35, 31, 30, 28, 26, 21, 19, 18}, {26, 19, 12}, {35, 32, 31, 29, 28, 27, 25, 19}, {45, 33, 32, 29, 25, 15}, {38, 37, 35, 32, 31, 30, 25, 16}, {35, 32, 28, 21, 19}, {29, 28, 26, 19}, {44, 38, 35, 28, 27, 26, 23}, {48, 47, 45, 44, 41, 33, 28, 27}, {48, 47, 44, 38, 35, 33, 23}, {47, 44, 38, 27, 23}, {48, 45, 44, 38, 33, 23}, {48, 47, 43, 36, 31, 29}, {41, 36, 29, 25}, {47, 44, 41, 38, 37, 36, 34}, {59, 55, 52, 43, 42, 41, 39, 37}, {52, 49, 46, 42, 41, 40, 38}, {53, 47, 44, 43, 34}, {59, 56, 55, 54, 52, 48, 47, 42, 40, 39}, {59, 56, 54, 53, 43, 39, 36}, {46, 43, 40, 34}, {55, 54, 53, 52, 51, 46, 44, 42}, {56, 55, 54, 52, 43, 42, 40, 39}, {59, 34}, {61, 56, 55, 53, 52, 51, 49, 48, 42}, {59, 55, 52, 49, 42, 40}, {56, 55, 52, 42, 39}, {69, 62, 60, 56, 52, 51, 49}, {69, 55, 40}, {69, 60, 53, 49, 46}, {59, 55, 43}, {69, 65, 63, 62, 61, 51, 49}, {65, 63, 62, 61, 60, 51, 50}, {69, 65, 62, 61, 58, 53}, {69, 65, 63, 62, 60, 58, 57}, {69, 65, 63, 51, 50}, {69, 65, 59, 57, 49}, {69, 62, 58, 57, 56}, {63, 58, 57, 56}, {69, 63, 58, 51}, {69, 63, 57, 50}, {50}, {71, 70, 64, 58}, {75, 71, 66, 57}, {65, 64, 63, 58}, {75, 66, 63, 57}, {70, 69, 64, 58}, {66, 65, 64, 62}, {77, 72, 71, 68, 67, 65}, {76, 70, 67, 64}, {77, 75, 73, 68, 67, 66}, {73, 72, 70, 68, 67, 66}, {79, 76, 74, 71, 64}, {79, 76, 71, 64}, {81, 73, 68, 67}, {83, 82, 81, 78, 77, 76, 74, 73}, {82, 77, 73, 72, 68}, {82, 81, 76, 74, 73}, {87, 86, 82, 81, 80, 78, 76}, {85, 82, 79, 78, 74}, {87, 86, 83, 80, 78}, {87, 86, 83, 80, 78}, {99, 91, 89, 86, 83, 80}, {88, 86, 85, 84, 78}, {99, 91, 89, 86, 81}, {99, 91, 87, 85, 80}, {100, 99, 86, 80}, {91, 89, 88, 86, 84}, {100, 98, 89, 88, 85, 84}, {91, 88, 87, 85, 84}, {100, 99, 96, 94, 91, 90, 89}, {98, 97, 96, 89, 88, 87}, {97, 88, 84}, {98, 88, 84}, {100, 98, 97, 96, 94, 93, 90}, {96, 93, 85}, {96, 94, 93, 90}, {95, 94, 90}, {98, 93, 90}, {94, 93, 92}, {95, 93}, {95, 92}, {92}, {97}, {}, {}, {}, {}, {}, {}, {}, {}, {}];
n_opt = 300;
dur = [6, 8, 8, 2, 5, 7, 5, 7, 9, 6, 6, 9, 5, 6, 9, 3, 3, 10, 6, 6, 7, 1, 8, 9, 4, 5, 10, 1, 7, 8, 3, 4, 8, 5, 9, 9, 4, 9, 9, 3, 5, 6, 1, 4, 5, 1, 1, 9, 1, 2, 3, 2, 5, 7, 5, 8, 8, 1, 4, 8, 3, 4, 5, 4, 6, 9, 1, 5, 10, 3, 8, 10, 1, 10, 10, 7, 8, 9, 6, 6, 9, 8, 10, 10, 2, 6, 8, 1, 6, 10, 3, 4, 10, 3, 4, 8, 8, 10, 10, 2, 3, 3, 3, 6, 8, 8, 8, 9, 3, 4, 9, 3, 5, 7, 1, 6, 8, 1, 4, 8, 1, 3, 9, 2, 6, 6, 6, 7, 8, 1, 5, 8, 1, 2, 3, 1, 8, 8, 2, 4, 7, 2, 6, 7, 6, 8, 10, 8, 8, 10, 1, 3, 3, 4, 6, 9, 2, 5, 9, 3, 7, 8, 2, 6, 8, 9, 9, 10, 3, 7, 8, 3, 8, 10, 5, 8, 10, 3, 6, 7, 1, 8, 9, 1, 3, 4, 4, 7, 8, 5, 5, 10, 1, 5, 7, 2, 6, 8, 4, 5, 7, 2, 6, 7, 1, 6, 7, 3, 5, 7, 3, 4, 8, 1, 3, 4, 6, 8, 9, 3, 5, 8, 5, 7, 8, 7, 7, 8, 3, 3, 9, 6, 8, 9, 1, 7, 10, 5, 5, 6, 1, 5, 6, 4, 4, 10, 2, 3, 9, 2, 3, 4, 1, 5, 8, 1, 5, 10, 5, 6, 7, 1, 8, 10, 1, 3, 6, 2, 3, 9, 6, 8, 10, 5, 6, 10, 1, 3, 4, 5, 7, 8, 5, 5, 7, 5, 6, 10, 2, 4, 7, 5, 7, 10, 3, 7, 10, 4, 7, 9];
rreq = [|5, 5, 0, 1, 0, 1, 2, 0, 1, 0, 3, 2, 0, 0, 0, 0, 3, 0, 0, 1, 1, 4, 4, 0, 5, 0, 0, 0, 1, 0, 0, 0, 1, 1, 1, 0, 0, 1, 0, 0, 3, 0, 1, 1, 0, 4, 0, 0, 3, 2, 0, 5, 0, 2, 3, 0, 3, 0, 0, 3, 4, 4, 0, 0, 0, 1, 0, 0, 0, 3, 2, 0, 5, 0, 2, 0, 3, 3, 0, 4, 3, 0, 0, 3, 4, 0, 0, 4, 2, 2, 0, 1, 0, 0, 0, 2, 0, 3, 2, 3, 3, 0, 0, 0, 2, 0, 3, 0, 0, 0, 3, 0, 0, 2, 4, 0, 4, 0, 0, 0, 0, 4, 0, 0, 2, 0, 0, 0, 0, 1, 0, 0, 0, 3, 0, 0, 0, 2, 2, 0, 1, 0, 1, 1, 3, 0, 2, 0, 1, 0, 3, 0, 3, 0, 0, 0, 3, 2, 0, 5, 4, 0, 0, 0, 0, 0, 0, 2, 0, 3, 1, 5, 4, 0, 0, 0, 4, 0, 2, 0, 0, 0, 1, 0, 1, 0, 0, 0, 2, 2, 0, 1, 0, 0, 2, 0, 0, 0, 0, 0, 0, 0, 3, 0, 0, 4, 0, 0, 0, 0, 0, 2, 2, 0, 0, 0, 1, 1, 0, 3, 2, 0, 0, 4, 0, 3, 0, 0, 0, 0, 0, 1, 1, 1, 3, 0, 0, 0, 2, 0, 5, 4, 0, 0, 2, 2, 0, 0, 0, 4, 0, 0, 0, 2, 0, 3, 0, 0, 0, 0, 2, 0, 2, 2, 0, 4, 4, 4, 0, 0, 0, 3, 3, 2, 2, 1, 1, 1, 1, 4, 0, 0, 5, 0, 0, 0, 0, 0, 2, 1, 1, 0, 0, 0, 0, 2, 0, 0, 4, 2
 |0, 0, 1, 0, 3, 0, 0, 3, 0, 3, 0, 0, 5, 4, 3, 3, 0, 3, 3, 0, 0, 0, 0, 1, 0, 4, 4, 5, 0, 4, 2, 1, 0, 0, 0, 2, 4, 0, 1, 3, 0, 2, 0, 0, 2, 0, 3, 3, 0, 0, 2, 0, 4, 0, 0, 3, 0, 5, 4, 0, 0, 0, 2, 5, 4, 0, 3, 1, 1, 0, 0, 5, 0, 3, 0, 4, 0, 0, 4, 0, 0, 1, 1, 0, 0, 3, 3, 0, 0, 0, 4, 0, 2, 4, 4, 0, 4, 0, 0, 0, 0, 3, 5, 5, 0, 5, 0, 4, 2, 2, 0, 3, 2, 0, 0, 4, 0, 4, 2, 2, 4, 0, 2, 4, 0, 4, 1, 1, 1, 0, 3, 3, 5, 0, 4, 5, 4, 0, 0, 1, 0, 2, 0, 0, 0, 3, 0, 3, 0, 3, 0, 1, 0, 2, 1, 1, 0, 0, 1, 0, 0, 1, 3, 3, 3, 1, 1, 0, 4, 0, 0, 0, 0, 1, 1, 1, 0, 3, 0, 2, 4, 4, 0, 4, 0, 2, 3, 3, 0, 0, 3, 0, 1, 1, 0, 4, 3, 2, 4, 3, 3, 3, 0, 1, 3, 0, 3, 1, 1, 1, 4, 0, 0, 3, 2, 1, 0, 0, 3, 0, 0, 2, 3, 0, 3, 0, 2, 2, 5, 5, 5, 0, 0, 0, 0, 2, 2, 5, 0, 4, 0, 0, 1, 5, 0, 0, 2, 2, 2, 0, 3, 3, 4, 0, 1, 0, 4, 4, 4, 4, 0, 3, 0, 0, 4, 0, 0, 0, 4, 3, 3, 0, 0, 0, 0, 0, 0, 0, 0, 0, 3, 3, 0, 3, 1, 1, 1, 1, 0, 0, 0, 1, 1, 1, 2, 0, 2, 1, 0, 0
 |3, 0, 0, 7, 0, 0, 6, 5, 3, 8, 4, 3, 0, 2, 2, 5, 0, 0, 0, 0, 0, 0, 4, 3, 9, 0, 3, 0, 0, 0, 0, 0, 0, 0, 7, 3, 0, 0, 0, 0, 5, 5, 7, 0, 6, 7, 0, 0, 0, 0, 3, 0, 9, 8, 5, 4, 4, 0, 0, 9, 6, 3, 0, 0, 7, 5, 1, 0, 0, 7, 4, 2, 0, 0, 0, 0, 6, 4, 0, 0, 0, 7, 0, 3, 10, 9, 0, 0, 0, 0, 0, 5, 0, 0, 8, 0, 0, 0, 4, 0, 3, 3, 8, 6, 0, 0, 0, 0, 0, 1, 1, 0, 5, 3, 0, 5, 4, 0, 4, 1, 5, 0, 3, 5, 0, 0, 3, 2, 0, 2, 2, 1, 8, 0, 0, 9, 0, 8, 9, 0, 2, 0, 5, 2, 0, 0, 2, 0, 4, 4, 9, 9, 0, 0, 0, 2, 1, 1, 1, 0, 0, 0, 0, 7, 6, 8, 0, 5, 6, 6, 0, 0, 0, 1, 0, 4, 0, 0, 7, 0, 9, 0, 0, 0, 0, 4, 6, 0, 0, 7, 0, 0, 7, 0, 5, 0, 0, 0, 6, 4, 0, 0, 6, 6, 4, 0, 3, 0, 0, 0, 0, 0, 3, 7, 0, 4, 4, 3, 0, 10, 6, 5, 0, 6, 0, 3, 0, 0, 0, 7, 6, 5, 0, 3, 8, 0, 5, 8, 0, 8, 0, 0, 0, 6, 0, 0, 4, 3, 2, 0, 6, 0, 4, 4, 0, 0, 0, 8, 5, 3, 0, 10, 8, 7, 3, 3, 2, 0, 2, 0, 4, 4, 3, 0, 3, 3, 0, 0, 4, 0, 4, 0, 0, 0, 0, 0, 0, 0, 0, 4, 3, 10, 0, 0, 0, 7, 6, 0, 7, 0
 |0, 1, 1, 0, 9, 8, 0, 0, 0, 0, 0, 0, 5, 0, 0, 0, 2, 1, 10, 6, 2, 8, 0, 0, 0, 7, 0, 9, 7, 6, 8, 6, 4, 1, 0, 0, 4, 3, 3, 5, 0, 0, 0, 8, 0, 0, 2, 1, 6, 5, 0, 8, 0, 0, 0, 0, 0, 5, 5, 0, 0, 0, 2, 8, 0, 0, 0, 3, 2, 0, 0, 0, 8, 6, 3, 7, 0, 0, 10, 6, 3, 0, 2, 0, 0, 0, 3, 10, 9, 8, 7, 0, 6, 8, 0, 6, 6, 5, 0, 5, 0, 0, 0, 0, 5, 8, 7, 7, 7, 0, 0, 2, 0, 0, 9, 0, 0, 6, 0, 0, 0, 5, 0, 0, 10, 10, 0, 0, 7, 0, 0, 0, 0, 8, 8, 0, 4, 0, 0, 6, 0, 6, 0, 0, 7, 5, 0, 6, 0, 0, 0, 0, 3, 7, 6, 0, 0, 0, 0, 9, 6, 3, 8, 0, 0, 0, 4, 0, 0, 0, 3, 5, 3, 0, 8, 0, 5, 4, 0, 2, 0, 5, 5, 1, 1, 0, 0, 7, 7, 0, 4, 4, 0, 7, 0, 6, 4, 4, 0, 0, 6, 4, 0, 0, 0, 8, 0, 5, 4, 3, 8, 3, 0, 0, 4, 0, 0, 0, 2, 0, 0, 0, 8, 0, 7, 0, 5, 4, 7, 0, 0, 0, 7, 0, 0, 5, 0, 0, 4, 0, 6, 6, 6, 0, 4, 3, 0, 0, 0, 3, 0, 2, 0, 0, 8, 10, 9, 0, 0, 0, 2, 0, 0, 0, 0, 0, 0, 6, 0, 2, 0, 0, 0, 3, 0, 0, 8, 7, 0, 5, 0, 4, 4, 3, 3, 8, 6, 5, 4, 0, 0, 0, 4, 3, 8, 0, 0, 6, 0, 4|];